param n := 120;
param c := 10000
param : V : p w :=
   0	 383	 373
   1	 277	 267
   2	 370	 360
   3	 442	 432
   4	 289	 279
   5	 299	 289
   6	 472	 462
   7	 273	 263
   8	 285	 275
   9	 490	 480
  10	 264	 254
  11	 276	 266
  12	 498	 488
  13	 262	 252
  14	 270	 260
  15	 494	 484
  16	 265	 255
  17	 271	 261
  18	 424	 414
  19	 275	 265
  20	 331	 321
  21	 474	 464
  22	 276	 266
  23	 280	 270
  24	 380	 370
  25	 290	 280
  26	 360	 350
  27	 462	 452
  28	 282	 272
  29	 286	 276
  30	 456	 446
  31	 279	 269
  32	 295	 285
  33	 457	 447
  34	 277	 267
  35	 296	 286
  36	 440	 430
  37	 266	 256
  38	 324	 314
  39	 475	 465
  40	 273	 263
  41	 282	 272
  42	 483	 473
  43	 269	 259
  44	 278	 268
  45	 419	 409
  46	 298	 288
  47	 313	 303
  48	 509	 499
  49	 260	 250
  50	 261	 251
  51	 493	 483
  52	 262	 252
  53	 275	 265
  54	 394	 384
  55	 293	 283
  56	 343	 333
  57	 494	 484
  58	 261	 251
  59	 275	 265
  60	 491	 481
  61	 267	 257
  62	 272	 262
  63	 411	 401
  64	 308	 298
  65	 311	 301
  66	 406	 396
  67	 299	 289
  68	 325	 315
  69	 392	 382
  70	 260	 250
  71	 378	 368
  72	 420	 410
  73	 266	 256
  74	 344	 334
  75	 507	 497
  76	 260	 250
  77	 263	 253
  78	 369	 359
  79	 327	 317
  80	 334	 324
  81	 434	 424
  82	 261	 251
  83	 335	 325
  84	 367	 357
  85	 316	 306
  86	 347	 337
  87	 406	 396
  88	 264	 254
  89	 360	 350
  90	 479	 469
  91	 268	 258
  92	 283	 273
  93	 401	 391
  94	 284	 274
  95	 345	 335
  96	 436	 426
  97	 288	 278
  98	 306	 296
  99	 444	 434
 100	 278	 268
 101	 308	 298
 102	 501	 491
 103	 261	 251
 104	 268	 258
 105	 470	 460
 106	 271	 261
 107	 289	 279
 108	 413	 403
 109	 299	 289
 110	 318	 308
 111	 446	 436
 112	 276	 266
 113	 308	 298
 114	 360	 350
 115	 332	 322
 116	 338	 328
 117	 429	 419
 118	 279	 269
 119	 322	 312
;

set E :=
   0	   6
   0	   7
   0	  10
   0	  13
   0	  14
   0	  16
   0	  19
   0	  26
   0	  28
   0	  29
   0	  31
   0	  33
   0	  34
   0	  36
   0	  37
   0	  38
   0	  40
   0	  45
   0	  46
   0	  52
   0	  54
   0	  61
   0	  63
   0	  64
   0	  67
   0	  76
   0	  78
   0	  79
   0	  84
   0	  88
   0	  90
   0	  92
   0	  94
   0	  96
   0	  97
   0	 100
   0	 101
   0	 103
   0	 105
   0	 107
   0	 108
   0	 110
   0	 113
   0	 119
   1	   3
   1	   6
   1	   7
   1	   8
   1	  10
   1	  11
   1	  13
   1	  14
   1	  15
   1	  16
   1	  18
   1	  19
   1	  20
   1	  21
   1	  22
   1	  23
   1	  24
   1	  26
   1	  27
   1	  28
   1	  30
   1	  32
   1	  34
   1	  39
   1	  42
   1	  47
   1	  48
   1	  49
   1	  54
   1	  55
   1	  58
   1	  59
   1	  63
   1	  64
   1	  65
   1	  71
   1	  72
   1	  73
   1	  74
   1	  77
   1	  78
   1	  80
   1	  85
   1	  86
   1	  87
   1	  90
   1	  91
   1	  93
   1	  94
   1	  95
   1	  99
   1	 100
   1	 103
   1	 104
   1	 108
   1	 110
   1	 114
   1	 115
   1	 116
   2	   3
   2	   4
   2	   5
   2	   9
   2	  10
   2	  12
   2	  14
   2	  15
   2	  17
   2	  20
   2	  21
   2	  22
   2	  23
   2	  25
   2	  27
   2	  28
   2	  29
   2	  30
   2	  32
   2	  34
   2	  37
   2	  38
   2	  40
   2	  41
   2	  42
   2	  43
   2	  48
   2	  50
   2	  52
   2	  53
   2	  54
   2	  56
   2	  63
   2	  66
   2	  71
   2	  72
   2	  74
   2	  78
   2	  79
   2	  81
   2	  84
   2	  86
   2	  89
   2	  93
   2	  95
   2	  96
   2	  97
   2	  99
   2	 100
   2	 101
   2	 103
   2	 105
   2	 106
   2	 109
   2	 114
   2	 115
   2	 117
   2	 118
   2	 119
   3	   6
   3	   8
   3	   9
   3	  10
   3	  13
   3	  16
   3	  17
   3	  25
   3	  27
   3	  28
   3	  36
   3	  37
   3	  39
   3	  41
   3	  44
   3	  47
   3	  52
   3	  53
   3	  54
   3	  55
   3	  60
   3	  61
   3	  62
   3	  65
   3	  67
   3	  74
   3	  75
   3	  79
   3	  81
   3	  83
   3	  85
   3	  87
   3	  90
   3	  97
   3	 102
   3	 107
   3	 108
   3	 109
   3	 111
   3	 113
   3	 114
   4	   5
   4	   6
   4	  10
   4	  11
   4	  12
   4	  16
   4	  18
   4	  19
   4	  20
   4	  23
   4	  24
   4	  25
   4	  26
   4	  27
   4	  29
   4	  34
   4	  35
   4	  36
   4	  42
   4	  43
   4	  46
   4	  48
   4	  55
   4	  56
   4	  57
   4	  58
   4	  62
   4	  64
   4	  68
   4	  71
   4	  72
   4	  74
   4	  75
   4	  77
   4	  83
   4	  84
   4	  86
   4	  94
   4	  97
   4	  99
   4	 102
   4	 103
   4	 105
   4	 108
   4	 110
   4	 112
   4	 118
   4	 119
   5	   7
   5	  13
   5	  14
   5	  17
   5	  22
   5	  26
   5	  27
   5	  29
   5	  31
   5	  35
   5	  39
   5	  40
   5	  42
   5	  43
   5	  47
   5	  48
   5	  52
   5	  53
   5	  55
   5	  58
   5	  59
   5	  64
   5	  68
   5	  70
   5	  72
   5	  76
   5	  78
   5	  80
   5	  84
   5	  85
   5	  87
   5	  93
   5	  94
   5	  96
   5	  99
   5	 103
   5	 106
   5	 110
   5	 113
   5	 115
   5	 116
   5	 117
   5	 118
   6	   8
   6	   9
   6	  12
   6	  15
   6	  16
   6	  17
   6	  21
   6	  28
   6	  29
   6	  30
   6	  31
   6	  33
   6	  34
   6	  35
   6	  38
   6	  40
   6	  44
   6	  45
   6	  46
   6	  47
   6	  49
   6	  50
   6	  53
   6	  54
   6	  56
   6	  57
   6	  61
   6	  62
   6	  64
   6	  67
   6	  70
   6	  74
   6	  76
   6	  77
   6	  82
   6	  89
   6	  90
   6	  92
   6	  95
   6	  97
   6	 100
   6	 103
   6	 105
   6	 107
   6	 108
   6	 109
   6	 114
   6	 115
   6	 117
   6	 119
   7	  10
   7	  18
   7	  26
   7	  27
   7	  33
   7	  34
   7	  36
   7	  37
   7	  39
   7	  44
   7	  46
   7	  49
   7	  51
   7	  53
   7	  54
   7	  58
   7	  59
   7	  60
   7	  62
   7	  67
   7	  74
   7	  76
   7	  77
   7	  80
   7	  82
   7	  89
   7	  91
   7	  93
   7	  95
   7	  97
   7	  98
   7	  99
   7	 100
   7	 101
   7	 103
   7	 105
   7	 108
   7	 111
   7	 114
   7	 116
   7	 118
   8	   9
   8	  10
   8	  12
   8	  17
   8	  18
   8	  20
   8	  21
   8	  25
   8	  28
   8	  31
   8	  32
   8	  33
   8	  34
   8	  36
   8	  37
   8	  38
   8	  39
   8	  41
   8	  42
   8	  43
   8	  45
   8	  47
   8	  49
   8	  50
   8	  52
   8	  54
   8	  56
   8	  60
   8	  61
   8	  62
   8	  68
   8	  69
   8	  71
   8	  72
   8	  77
   8	  82
   8	  84
   8	  85
   8	  92
   8	  95
   8	 101
   8	 102
   8	 106
   8	 114
   8	 118
   9	  13
   9	  14
   9	  16
   9	  18
   9	  19
   9	  20
   9	  22
   9	  23
   9	  24
   9	  28
   9	  29
   9	  35
   9	  37
   9	  40
   9	  42
   9	  44
   9	  45
   9	  49
   9	  53
   9	  54
   9	  56
   9	  58
   9	  59
   9	  60
   9	  62
   9	  63
   9	  64
   9	  65
   9	  67
   9	  72
   9	  73
   9	  75
   9	  81
   9	  83
   9	  87
   9	  94
   9	  95
   9	  98
   9	  99
   9	 100
   9	 102
   9	 104
   9	 108
   9	 109
   9	 113
   9	 114
   9	 118
  10	  11
  10	  14
  10	  16
  10	  17
  10	  19
  10	  21
  10	  22
  10	  24
  10	  26
  10	  28
  10	  32
  10	  33
  10	  34
  10	  36
  10	  37
  10	  43
  10	  44
  10	  48
  10	  49
  10	  51
  10	  52
  10	  53
  10	  56
  10	  58
  10	  59
  10	  60
  10	  61
  10	  62
  10	  64
  10	  66
  10	  68
  10	  72
  10	  73
  10	  74
  10	  76
  10	  77
  10	  79
  10	  84
  10	  86
  10	  87
  10	  88
  10	  89
  10	  90
  10	  92
  10	  95
  10	  98
  10	 100
  10	 102
  10	 105
  10	 106
  10	 107
  10	 108
  10	 109
  10	 111
  10	 112
  10	 113
  10	 114
  10	 115
  10	 116
  11	  12
  11	  16
  11	  17
  11	  20
  11	  22
  11	  26
  11	  27
  11	  29
  11	  31
  11	  32
  11	  34
  11	  38
  11	  42
  11	  43
  11	  44
  11	  46
  11	  51
  11	  52
  11	  54
  11	  61
  11	  62
  11	  63
  11	  64
  11	  65
  11	  66
  11	  67
  11	  70
  11	  71
  11	  75
  11	  77
  11	  89
  11	  91
  11	  92
  11	  94
  11	  95
  11	  98
  11	 100
  11	 101
  11	 103
  11	 105
  11	 106
  11	 108
  11	 118
  12	  13
  12	  17
  12	  19
  12	  20
  12	  26
  12	  27
  12	  28
  12	  29
  12	  32
  12	  33
  12	  38
  12	  42
  12	  44
  12	  46
  12	  51
  12	  52
  12	  55
  12	  58
  12	  59
  12	  60
  12	  64
  12	  65
  12	  66
  12	  68
  12	  73
  12	  74
  12	  75
  12	  76
  12	  77
  12	  79
  12	  86
  12	  90
  12	  92
  12	  98
  12	  99
  12	 100
  12	 101
  12	 106
  12	 107
  12	 108
  12	 109
  12	 112
  12	 114
  12	 117
  13	  15
  13	  18
  13	  19
  13	  20
  13	  21
  13	  23
  13	  25
  13	  32
  13	  33
  13	  36
  13	  42
  13	  43
  13	  45
  13	  46
  13	  47
  13	  48
  13	  49
  13	  50
  13	  56
  13	  57
  13	  58
  13	  63
  13	  64
  13	  65
  13	  66
  13	  73
  13	  75
  13	  80
  13	  81
  13	  82
  13	  83
  13	  91
  13	  99
  13	 100
  13	 101
  13	 102
  13	 103
  13	 106
  13	 109
  13	 112
  13	 113
  13	 115
  13	 116
  13	 118
  14	  16
  14	  21
  14	  25
  14	  29
  14	  30
  14	  31
  14	  32
  14	  35
  14	  39
  14	  40
  14	  41
  14	  42
  14	  43
  14	  44
  14	  45
  14	  46
  14	  48
  14	  53
  14	  54
  14	  57
  14	  58
  14	  64
  14	  65
  14	  66
  14	  70
  14	  75
  14	  76
  14	  78
  14	  79
  14	  81
  14	  82
  14	  83
  14	  84
  14	  85
  14	  88
  14	  90
  14	  95
  14	  96
  14	  97
  14	 102
  14	 103
  14	 104
  14	 105
  14	 107
  14	 109
  14	 110
  14	 113
  14	 115
  14	 117
  15	  17
  15	  18
  15	  28
  15	  29
  15	  33
  15	  37
  15	  38
  15	  48
  15	  53
  15	  56
  15	  58
  15	  59
  15	  62
  15	  65
  15	  67
  15	  69
  15	  70
  15	  74
  15	  75
  15	  78
  15	  79
  15	  81
  15	  86
  15	  89
  15	  91
  15	  93
  15	  98
  15	  99
  15	 100
  15	 101
  15	 102
  15	 104
  15	 105
  15	 107
  15	 108
  15	 112
  15	 115
  15	 117
  16	  17
  16	  18
  16	  19
  16	  20
  16	  23
  16	  24
  16	  25
  16	  28
  16	  30
  16	  33
  16	  37
  16	  41
  16	  42
  16	  44
  16	  45
  16	  49
  16	  64
  16	  68
  16	  69
  16	  73
  16	  77
  16	  80
  16	  81
  16	  82
  16	  83
  16	  84
  16	  85
  16	  90
  16	  91
  16	  93
  16	  94
  16	  96
  16	  98
  16	 100
  16	 102
  16	 103
  16	 104
  16	 106
  16	 107
  16	 109
  16	 111
  16	 113
  16	 117
  16	 119
  17	  20
  17	  21
  17	  24
  17	  28
  17	  30
  17	  32
  17	  35
  17	  37
  17	  38
  17	  39
  17	  40
  17	  44
  17	  47
  17	  49
  17	  50
  17	  55
  17	  60
  17	  61
  17	  67
  17	  72
  17	  73
  17	  80
  17	  81
  17	  82
  17	  87
  17	  88
  17	  91
  17	  92
  17	 100
  17	 107
  17	 109
  17	 110
  17	 112
  17	 114
  17	 118
  18	  19
  18	  22
  18	  24
  18	  27
  18	  28
  18	  30
  18	  31
  18	  32
  18	  35
  18	  37
  18	  39
  18	  43
  18	  44
  18	  47
  18	  48
  18	  49
  18	  53
  18	  54
  18	  56
  18	  57
  18	  59
  18	  60
  18	  62
  18	  63
  18	  64
  18	  66
  18	  67
  18	  70
  18	  72
  18	  76
  18	  80
  18	  81
  18	  85
  18	  86
  18	  87
  18	  89
  18	  91
  18	  93
  18	  94
  18	  98
  18	  99
  18	 100
  18	 103
  18	 110
  18	 116
  18	 117
  18	 119
  19	  21
  19	  23
  19	  24
  19	  27
  19	  30
  19	  33
  19	  34
  19	  35
  19	  46
  19	  47
  19	  50
  19	  54
  19	  55
  19	  57
  19	  58
  19	  62
  19	  69
  19	  72
  19	  73
  19	  76
  19	  78
  19	  81
  19	  82
  19	  84
  19	  87
  19	  90
  19	  92
  19	  93
  19	  95
  19	  99
  19	 103
  19	 105
  19	 107
  19	 108
  19	 111
  19	 112
  19	 115
  19	 117
  19	 118
  19	 119
  20	  26
  20	  28
  20	  30
  20	  33
  20	  35
  20	  36
  20	  39
  20	  42
  20	  43
  20	  45
  20	  50
  20	  54
  20	  57
  20	  60
  20	  64
  20	  65
  20	  67
  20	  69
  20	  70
  20	  73
  20	  76
  20	  80
  20	  87
  20	  88
  20	  90
  20	  92
  20	  98
  20	  99
  20	 101
  20	 102
  20	 103
  20	 107
  20	 112
  20	 117
  21	  22
  21	  24
  21	  26
  21	  28
  21	  29
  21	  32
  21	  33
  21	  37
  21	  42
  21	  43
  21	  45
  21	  47
  21	  49
  21	  53
  21	  56
  21	  57
  21	  60
  21	  61
  21	  62
  21	  64
  21	  65
  21	  66
  21	  69
  21	  71
  21	  74
  21	  75
  21	  76
  21	  78
  21	  79
  21	  80
  21	  83
  21	  84
  21	  89
  21	  90
  21	  91
  21	  93
  21	  98
  21	  99
  21	 100
  21	 102
  21	 103
  21	 105
  21	 106
  21	 107
  21	 113
  21	 119
  22	  23
  22	  26
  22	  29
  22	  31
  22	  33
  22	  34
  22	  35
  22	  36
  22	  37
  22	  40
  22	  43
  22	  49
  22	  52
  22	  54
  22	  58
  22	  59
  22	  61
  22	  62
  22	  63
  22	  64
  22	  72
  22	  76
  22	  77
  22	  85
  22	  88
  22	  94
  22	 101
  22	 104
  22	 111
  22	 112
  22	 113
  22	 114
  23	  24
  23	  30
  23	  31
  23	  32
  23	  34
  23	  41
  23	  47
  23	  53
  23	  54
  23	  58
  23	  63
  23	  64
  23	  68
  23	  69
  23	  70
  23	  74
  23	  76
  23	  78
  23	  85
  23	  86
  23	  88
  23	  94
  23	  97
  23	  99
  23	 102
  23	 104
  23	 106
  23	 107
  23	 109
  23	 111
  23	 113
  23	 114
  23	 115
  23	 116
  24	  25
  24	  28
  24	  30
  24	  31
  24	  35
  24	  36
  24	  38
  24	  40
  24	  43
  24	  48
  24	  49
  24	  55
  24	  58
  24	  59
  24	  64
  24	  71
  24	  76
  24	  78
  24	  82
  24	  84
  24	  87
  24	  88
  24	  94
  24	 100
  24	 102
  24	 104
  24	 105
  24	 106
  24	 109
  24	 111
  24	 112
  24	 114
  24	 115
  24	 117
  24	 119
  25	  27
  25	  28
  25	  31
  25	  32
  25	  40
  25	  41
  25	  42
  25	  44
  25	  49
  25	  51
  25	  52
  25	  54
  25	  57
  25	  59
  25	  61
  25	  63
  25	  68
  25	  70
  25	  71
  25	  72
  25	  77
  25	  79
  25	  83
  25	  86
  25	  88
  25	  89
  25	  90
  25	  91
  25	  93
  25	  94
  25	  95
  25	 102
  25	 103
  25	 108
  25	 116
  25	 119
  26	  30
  26	  31
  26	  32
  26	  35
  26	  36
  26	  39
  26	  40
  26	  41
  26	  45
  26	  49
  26	  50
  26	  53
  26	  56
  26	  58
  26	  59
  26	  60
  26	  62
  26	  63
  26	  65
  26	  66
  26	  67
  26	  71
  26	  76
  26	  78
  26	  80
  26	  83
  26	  86
  26	  87
  26	  88
  26	  90
  26	  91
  26	  92
  26	  93
  26	  94
  26	 101
  26	 102
  26	 107
  26	 108
  26	 109
  26	 110
  26	 113
  26	 114
  26	 117
  26	 119
  27	  32
  27	  33
  27	  34
  27	  36
  27	  38
  27	  42
  27	  43
  27	  44
  27	  45
  27	  47
  27	  48
  27	  52
  27	  53
  27	  57
  27	  58
  27	  59
  27	  61
  27	  66
  27	  67
  27	  68
  27	  69
  27	  70
  27	  72
  27	  76
  27	  77
  27	  78
  27	  79
  27	  80
  27	  82
  27	  85
  27	  87
  27	  88
  27	  97
  27	  98
  27	 103
  27	 104
  27	 105
  27	 106
  27	 108
  27	 111
  27	 113
  27	 118
  28	  31
  28	  34
  28	  36
  28	  41
  28	  43
  28	  51
  28	  53
  28	  55
  28	  56
  28	  57
  28	  60
  28	  63
  28	  66
  28	  69
  28	  74
  28	  77
  28	  80
  28	  81
  28	  86
  28	  94
  28	  97
  28	  98
  28	 100
  28	 101
  28	 102
  28	 104
  28	 112
  28	 113
  28	 116
  28	 119
  29	  30
  29	  34
  29	  36
  29	  39
  29	  43
  29	  56
  29	  57
  29	  58
  29	  64
  29	  68
  29	  69
  29	  73
  29	  75
  29	  77
  29	  86
  29	  88
  29	  90
  29	  92
  29	  94
  29	  95
  29	  98
  29	 101
  29	 104
  29	 105
  29	 106
  29	 110
  29	 112
  29	 119
  30	  31
  30	  35
  30	  38
  30	  40
  30	  42
  30	  43
  30	  44
  30	  45
  30	  48
  30	  52
  30	  54
  30	  59
  30	  61
  30	  62
  30	  65
  30	  66
  30	  69
  30	  73
  30	  74
  30	  75
  30	  78
  30	  81
  30	  88
  30	  91
  30	  93
  30	 103
  30	 104
  30	 106
  30	 108
  30	 109
  30	 112
  30	 113
  30	 114
  30	 116
  30	 117
  30	 118
  30	 119
  31	  34
  31	  37
  31	  40
  31	  42
  31	  43
  31	  44
  31	  45
  31	  46
  31	  56
  31	  64
  31	  72
  31	  76
  31	  80
  31	  81
  31	  85
  31	  88
  31	  89
  31	  90
  31	  98
  31	  99
  31	 101
  31	 102
  31	 104
  31	 106
  31	 108
  31	 109
  31	 111
  31	 115
  31	 116
  32	  34
  32	  39
  32	  41
  32	  52
  32	  54
  32	  56
  32	  57
  32	  62
  32	  64
  32	  68
  32	  71
  32	  73
  32	  74
  32	  75
  32	  76
  32	  79
  32	  81
  32	  85
  32	  87
  32	  91
  32	 100
  32	 102
  32	 103
  32	 104
  32	 111
  32	 112
  32	 113
  32	 115
  32	 116
  33	  34
  33	  36
  33	  37
  33	  42
  33	  43
  33	  45
  33	  47
  33	  49
  33	  50
  33	  51
  33	  55
  33	  57
  33	  58
  33	  61
  33	  63
  33	  65
  33	  74
  33	  75
  33	  78
  33	  79
  33	  81
  33	  83
  33	  85
  33	  86
  33	  87
  33	  89
  33	  91
  33	  97
  33	 100
  33	 101
  33	 102
  33	 103
  33	 105
  33	 111
  33	 113
  33	 114
  33	 115
  34	  35
  34	  37
  34	  38
  34	  39
  34	  41
  34	  43
  34	  44
  34	  47
  34	  48
  34	  50
  34	  51
  34	  53
  34	  54
  34	  55
  34	  56
  34	  60
  34	  61
  34	  63
  34	  64
  34	  65
  34	  66
  34	  68
  34	  69
  34	  70
  34	  71
  34	  72
  34	  75
  34	  78
  34	  81
  34	  82
  34	  83
  34	  84
  34	  94
  34	  95
  34	  98
  34	  99
  34	 100
  34	 102
  34	 104
  34	 107
  34	 113
  34	 114
  34	 117
  35	  38
  35	  43
  35	  45
  35	  47
  35	  48
  35	  50
  35	  52
  35	  54
  35	  57
  35	  59
  35	  61
  35	  62
  35	  65
  35	  66
  35	  71
  35	  73
  35	  77
  35	  78
  35	  79
  35	  81
  35	  86
  35	  87
  35	  89
  35	  90
  35	  97
  35	  99
  35	 102
  35	 103
  35	 104
  35	 107
  35	 112
  35	 114
  35	 115
  35	 117
  35	 118
  36	  39
  36	  40
  36	  42
  36	  43
  36	  45
  36	  47
  36	  50
  36	  51
  36	  53
  36	  54
  36	  55
  36	  59
  36	  60
  36	  61
  36	  64
  36	  67
  36	  68
  36	  69
  36	  73
  36	  74
  36	  79
  36	  81
  36	  82
  36	  83
  36	  85
  36	  86
  36	  87
  36	  91
  36	  92
  36	  93
  36	  94
  36	  97
  36	  99
  36	 101
  36	 102
  36	 104
  36	 105
  36	 106
  36	 108
  36	 119
  37	  42
  37	  44
  37	  47
  37	  50
  37	  53
  37	  54
  37	  60
  37	  61
  37	  63
  37	  65
  37	  66
  37	  69
  37	  71
  37	  74
  37	  76
  37	  79
  37	  80
  37	  85
  37	  86
  37	  88
  37	  91
  37	  93
  37	  98
  37	 106
  37	 109
  37	 111
  37	 112
  37	 113
  37	 116
  37	 117
  37	 118
  37	 119
  38	  43
  38	  45
  38	  48
  38	  51
  38	  53
  38	  54
  38	  55
  38	  57
  38	  62
  38	  63
  38	  68
  38	  69
  38	  72
  38	  73
  38	  78
  38	  80
  38	  82
  38	  83
  38	  84
  38	  86
  38	  88
  38	  91
  38	  92
  38	  96
  38	  98
  38	  99
  38	 100
  38	 103
  38	 104
  38	 111
  38	 114
  38	 115
  38	 116
  38	 117
  39	  41
  39	  46
  39	  47
  39	  49
  39	  50
  39	  51
  39	  52
  39	  59
  39	  61
  39	  64
  39	  66
  39	  69
  39	  71
  39	  73
  39	  74
  39	  77
  39	  85
  39	  88
  39	  89
  39	  90
  39	  92
  39	  96
  39	  99
  39	 111
  39	 118
  40	  42
  40	  45
  40	  46
  40	  54
  40	  55
  40	  59
  40	  61
  40	  64
  40	  65
  40	  66
  40	  67
  40	  70
  40	  75
  40	  76
  40	  83
  40	  87
  40	  89
  40	  91
  40	  94
  40	  97
  40	  98
  40	 100
  40	 101
  40	 102
  40	 103
  40	 107
  40	 108
  40	 109
  40	 110
  40	 112
  40	 114
  40	 118
  40	 119
  41	  42
  41	  44
  41	  46
  41	  47
  41	  49
  41	  50
  41	  52
  41	  56
  41	  58
  41	  68
  41	  70
  41	  72
  41	  74
  41	  80
  41	  87
  41	  88
  41	  89
  41	  91
  41	  93
  41	  95
  41	  97
  41	 102
  41	 103
  41	 107
  41	 108
  41	 110
  41	 115
  41	 116
  42	  44
  42	  48
  42	  49
  42	  51
  42	  53
  42	  55
  42	  56
  42	  58
  42	  59
  42	  63
  42	  71
  42	  78
  42	  79
  42	  81
  42	  84
  42	  86
  42	  89
  42	  91
  42	  93
  42	  94
  42	  96
  42	  98
  42	 102
  42	 106
  42	 107
  42	 109
  42	 110
  42	 112
  42	 113
  42	 116
  43	  48
  43	  49
  43	  51
  43	  53
  43	  54
  43	  55
  43	  56
  43	  58
  43	  62
  43	  64
  43	  67
  43	  70
  43	  73
  43	  76
  43	  79
  43	  80
  43	  82
  43	  84
  43	  87
  43	  88
  43	  93
  43	  94
  43	  98
  43	 100
  43	 101
  43	 103
  43	 105
  43	 106
  43	 109
  43	 110
  43	 114
  43	 119
  44	  46
  44	  52
  44	  53
  44	  60
  44	  61
  44	  62
  44	  63
  44	  68
  44	  69
  44	  71
  44	  76
  44	  81
  44	  82
  44	  83
  44	  85
  44	  86
  44	  92
  44	  93
  44	  94
  44	  99
  44	 102
  44	 104
  44	 105
  44	 107
  44	 109
  44	 114
  44	 115
  44	 117
  45	  46
  45	  48
  45	  49
  45	  51
  45	  52
  45	  56
  45	  58
  45	  62
  45	  63
  45	  64
  45	  66
  45	  67
  45	  68
  45	  70
  45	  73
  45	  85
  45	  86
  45	  88
  45	  90
  45	  92
  45	  94
  45	  95
  45	  97
  45	  98
  45	  99
  45	 100
  45	 102
  45	 103
  45	 106
  45	 108
  45	 111
  45	 113
  45	 115
  45	 116
  46	  48
  46	  50
  46	  52
  46	  53
  46	  55
  46	  57
  46	  58
  46	  59
  46	  69
  46	  76
  46	  78
  46	  81
  46	  83
  46	  84
  46	  85
  46	  87
  46	  88
  46	  89
  46	  90
  46	  91
  46	  93
  46	  95
  46	  97
  46	  99
  46	 102
  46	 103
  46	 104
  46	 108
  46	 110
  46	 119
  47	  49
  47	  51
  47	  55
  47	  57
  47	  58
  47	  59
  47	  66
  47	  67
  47	  70
  47	  78
  47	  83
  47	  84
  47	  87
  47	  91
  47	 105
  47	 108
  47	 111
  47	 112
  47	 114
  47	 116
  47	 118
  48	  51
  48	  52
  48	  53
  48	  55
  48	  57
  48	  58
  48	  63
  48	  65
  48	  67
  48	  68
  48	  70
  48	  71
  48	  72
  48	  73
  48	  75
  48	  77
  48	  81
  48	  85
  48	  87
  48	  91
  48	  94
  48	  97
  48	  98
  48	  99
  48	 100
  48	 104
  48	 106
  48	 107
  48	 109
  48	 113
  48	 115
  48	 117
  48	 119
  49	  57
  49	  61
  49	  66
  49	  68
  49	  70
  49	  77
  49	  78
  49	  82
  49	  83
  49	  85
  49	  86
  49	  87
  49	  92
  49	  93
  49	  97
  49	  99
  49	 102
  49	 105
  49	 110
  49	 111
  49	 114
  49	 117
  50	  58
  50	  59
  50	  60
  50	  63
  50	  65
  50	  75
  50	  76
  50	  82
  50	  83
  50	  84
  50	  90
  50	  94
  50	  96
  50	  99
  50	 101
  50	 103
  50	 106
  50	 110
  50	 115
  50	 116
  50	 117
  50	 118
  51	  55
  51	  56
  51	  59
  51	  61
  51	  65
  51	  66
  51	  67
  51	  68
  51	  72
  51	  73
  51	  77
  51	  78
  51	  79
  51	  82
  51	  85
  51	  87
  51	  90
  51	  91
  51	  92
  51	  93
  51	  95
  51	  96
  51	 100
  51	 102
  51	 103
  51	 105
  51	 108
  51	 109
  51	 111
  51	 115
  51	 116
  51	 119
  52	  56
  52	  57
  52	  60
  52	  63
  52	  64
  52	  72
  52	  74
  52	  75
  52	  78
  52	  79
  52	  83
  52	  84
  52	  85
  52	  86
  52	  88
  52	  92
  52	  97
  52	  99
  52	 101
  52	 103
  52	 106
  52	 108
  52	 111
  52	 113
  52	 115
  52	 117
  53	  56
  53	  58
  53	  59
  53	  60
  53	  63
  53	  64
  53	  65
  53	  66
  53	  68
  53	  70
  53	  71
  53	  72
  53	  73
  53	  76
  53	  77
  53	  79
  53	  83
  53	  85
  53	  87
  53	  90
  53	  91
  53	  92
  53	  93
  53	  95
  53	  96
  53	  97
  53	 103
  53	 105
  53	 107
  53	 108
  53	 111
  53	 112
  53	 119
  54	  56
  54	  60
  54	  61
  54	  63
  54	  64
  54	  66
  54	  67
  54	  68
  54	  72
  54	  73
  54	  77
  54	  80
  54	  82
  54	  84
  54	  90
  54	  93
  54	  94
  54	  95
  54	  97
  54	  98
  54	 103
  54	 104
  54	 107
  54	 109
  54	 111
  54	 113
  54	 115
  54	 117
  54	 118
  55	  56
  55	  57
  55	  60
  55	  63
  55	  65
  55	  67
  55	  70
  55	  72
  55	  75
  55	  77
  55	  79
  55	  80
  55	  82
  55	  84
  55	  91
  55	  92
  55	  93
  55	  96
  55	  97
  55	 103
  55	 106
  55	 107
  55	 116
  55	 119
  56	  59
  56	  66
  56	  70
  56	  72
  56	  73
  56	  75
  56	  80
  56	  83
  56	  84
  56	  89
  56	  90
  56	  92
  56	  95
  56	  97
  56	 101
  56	 105
  56	 109
  56	 110
  56	 111
  57	  60
  57	  63
  57	  64
  57	  66
  57	  67
  57	  70
  57	  75
  57	  83
  57	  84
  57	  85
  57	  90
  57	  93
  57	  94
  57	 100
  57	 102
  57	 103
  57	 106
  57	 108
  57	 109
  57	 110
  57	 114
  57	 117
  57	 118
  58	  59
  58	  63
  58	  67
  58	  69
  58	  75
  58	  79
  58	  81
  58	  83
  58	  85
  58	  88
  58	  91
  58	  92
  58	  93
  58	 103
  58	 106
  58	 108
  58	 112
  58	 114
  58	 119
  59	  60
  59	  61
  59	  63
  59	  79
  59	  82
  59	  87
  59	  88
  59	  89
  59	  90
  59	  93
  59	  94
  59	  97
  59	  99
  59	 111
  59	 112
  59	 116
  59	 117
  59	 119
  60	  61
  60	  62
  60	  64
  60	  65
  60	  66
  60	  71
  60	  72
  60	  73
  60	  74
  60	  75
  60	  78
  60	  79
  60	  80
  60	  81
  60	  82
  60	  85
  60	  88
  60	  92
  60	  93
  60	  94
  60	  97
  60	 100
  60	 101
  60	 103
  60	 105
  60	 110
  60	 114
  60	 116
  61	  65
  61	  69
  61	  71
  61	  72
  61	  73
  61	  74
  61	  79
  61	  84
  61	  87
  61	  90
  61	  91
  61	  92
  61	  99
  61	 100
  61	 103
  61	 104
  61	 105
  61	 109
  61	 111
  61	 115
  61	 116
  61	 119
  62	  64
  62	  65
  62	  70
  62	  71
  62	  74
  62	  75
  62	  82
  62	  84
  62	  85
  62	  87
  62	  88
  62	  91
  62	  92
  62	  93
  62	  94
  62	  97
  62	 100
  62	 105
  62	 106
  62	 112
  62	 116
  62	 119
  63	  64
  63	  65
  63	  67
  63	  71
  63	  72
  63	  75
  63	  76
  63	  78
  63	  80
  63	  81
  63	  83
  63	  85
  63	  87
  63	  88
  63	  93
  63	  94
  63	  97
  63	  98
  63	 101
  63	 102
  63	 103
  63	 106
  63	 108
  63	 111
  63	 112
  63	 113
  64	  65
  64	  68
  64	  69
  64	  71
  64	  80
  64	  83
  64	  87
  64	  90
  64	  91
  64	  92
  64	  93
  64	  95
  64	 100
  64	 101
  64	 102
  64	 105
  64	 107
  64	 110
  64	 116
  64	 117
  64	 119
  65	  69
  65	  71
  65	  72
  65	  73
  65	  74
  65	  75
  65	  77
  65	  79
  65	  80
  65	  81
  65	  83
  65	  84
  65	  87
  65	  88
  65	  90
  65	  92
  65	  94
  65	  97
  65	  98
  65	 100
  65	 102
  65	 104
  65	 105
  65	 107
  65	 109
  65	 113
  65	 116
  65	 117
  65	 119
  66	  72
  66	  76
  66	  77
  66	  80
  66	  81
  66	  86
  66	  87
  66	  88
  66	  91
  66	  92
  66	  94
  66	  99
  66	 101
  66	 107
  66	 109
  66	 110
  66	 111
  66	 112
  66	 118
  67	  69
  67	  70
  67	  71
  67	  72
  67	  79
  67	  82
  67	  83
  67	  84
  67	  85
  67	  89
  67	  92
  67	  97
  67	  98
  67	  99
  67	 102
  67	 103
  67	 105
  67	 107
  67	 113
  67	 115
  67	 116
  67	 119
  68	  69
  68	  74
  68	  75
  68	  78
  68	  81
  68	  86
  68	  87
  68	  88
  68	  90
  68	  91
  68	  94
  68	  96
  68	 102
  68	 104
  68	 105
  68	 108
  68	 109
  68	 110
  68	 114
  68	 115
  68	 118
  69	  70
  69	  72
  69	  73
  69	  75
  69	  79
  69	  82
  69	  83
  69	  84
  69	  90
  69	  97
  69	  98
  69	  99
  69	 102
  69	 103
  69	 104
  69	 107
  69	 110
  70	  74
  70	  79
  70	  80
  70	  82
  70	  88
  70	  89
  70	  90
  70	  92
  70	  96
  70	  99
  70	 101
  70	 107
  70	 110
  70	 118
  70	 119
  71	  72
  71	  73
  71	  79
  71	  82
  71	  83
  71	  87
  71	  89
  71	  90
  71	  91
  71	  92
  71	  93
  71	  95
  71	 100
  71	 101
  71	 102
  71	 106
  71	 108
  71	 109
  71	 111
  71	 112
  71	 113
  71	 114
  71	 117
  72	  73
  72	  76
  72	  79
  72	  80
  72	  81
  72	  83
  72	  85
  72	  86
  72	  87
  72	  92
  72	  95
  72	  96
  72	  97
  72	 100
  72	 101
  72	 103
  72	 105
  72	 106
  72	 107
  72	 109
  72	 110
  72	 112
  72	 113
  72	 115
  72	 116
  72	 118
  72	 119
  73	  74
  73	  75
  73	  76
  73	  80
  73	  84
  73	  85
  73	  86
  73	  88
  73	  89
  73	  94
  73	  97
  73	 109
  73	 110
  73	 111
  73	 117
  73	 119
  74	  75
  74	  77
  74	  78
  74	  80
  74	  83
  74	  84
  74	  90
  74	  98
  74	  99
  74	 100
  74	 105
  74	 110
  74	 113
  74	 114
  74	 116
  74	 117
  74	 118
  74	 119
  75	  76
  75	  78
  75	  80
  75	  84
  75	  86
  75	  87
  75	  91
  75	  92
  75	  93
  75	  95
  75	  99
  75	 100
  75	 103
  75	 112
  75	 114
  75	 115
  76	  78
  76	  81
  76	  84
  76	  85
  76	  87
  76	  89
  76	  90
  76	  91
  76	  93
  76	  94
  76	  98
  76	 104
  76	 106
  76	 110
  76	 111
  76	 112
  76	 113
  76	 114
  76	 116
  76	 118
  76	 119
  77	  78
  77	  79
  77	  80
  77	  82
  77	  83
  77	  85
  77	  86
  77	  89
  77	  91
  77	  94
  77	  96
  77	  98
  77	 101
  77	 103
  77	 109
  77	 112
  77	 118
  78	  80
  78	  82
  78	  85
  78	  89
  78	  91
  78	  95
  78	  96
  78	  97
  78	 100
  78	 101
  78	 102
  78	 107
  78	 108
  78	 112
  78	 113
  78	 119
  79	  80
  79	  81
  79	  88
  79	  90
  79	  91
  79	  95
  79	 102
  79	 103
  79	 105
  79	 106
  79	 111
  79	 113
  79	 114
  79	 115
  79	 116
  79	 118
  79	 119
  80	  81
  80	  82
  80	  85
  80	  86
  80	  89
  80	  91
  80	  93
  80	  94
  80	  99
  80	 100
  80	 102
  80	 104
  80	 109
  80	 114
  80	 116
  80	 117
  80	 118
  81	  85
  81	  87
  81	  88
  81	  89
  81	  90
  81	  91
  81	  92
  81	  93
  81	  97
  81	 100
  81	 102
  81	 103
  81	 110
  81	 111
  81	 119
  82	  83
  82	  84
  82	  85
  82	  87
  82	  89
  82	  90
  82	  93
  82	  94
  82	  98
  82	 100
  82	 103
  82	 107
  82	 114
  82	 115
  82	 116
  82	 117
  82	 118
  82	 119
  83	  85
  83	  86
  83	  87
  83	  88
  83	  90
  83	  97
  83	 101
  83	 106
  83	 109
  83	 110
  83	 111
  83	 112
  83	 116
  83	 118
  83	 119
  84	  86
  84	  90
  84	  92
  84	  95
  84	  97
  84	  99
  84	 102
  84	 106
  84	 107
  84	 112
  84	 116
  84	 117
  84	 118
  85	  89
  85	  91
  85	 101
  85	 102
  85	 107
  85	 108
  85	 111
  85	 116
  86	  88
  86	  89
  86	  90
  86	  92
  86	  93
  86	  95
  86	  97
  86	 100
  86	 103
  86	 105
  86	 106
  86	 107
  86	 112
  86	 113
  86	 114
  86	 116
  86	 119
  87	  88
  87	  96
  87	  98
  87	 100
  87	 103
  87	 106
  87	 107
  87	 108
  87	 110
  87	 111
  87	 115
  87	 116
  87	 119
  88	  89
  88	  90
  88	  91
  88	  92
  88	  93
  88	  96
  88	  99
  88	 102
  88	 103
  88	 104
  88	 106
  88	 112
  88	 115
  88	 116
  88	 117
  89	  90
  89	  93
  89	  94
  89	  98
  89	  99
  89	 101
  89	 103
  89	 106
  89	 109
  89	 110
  89	 111
  89	 113
  89	 114
  89	 115
  90	  93
  90	  95
  90	  96
  90	  98
  90	  99
  90	 101
  90	 107
  90	 109
  90	 111
  90	 114
  90	 115
  90	 116
  90	 118
  91	  92
  91	  93
  91	  94
  91	  97
  91	  98
  91	 101
  91	 102
  91	 105
  91	 106
  91	 108
  91	 114
  91	 117
  92	  93
  92	  94
  92	  97
  92	  98
  92	  99
  92	 101
  92	 105
  92	 106
  92	 107
  92	 108
  92	 111
  92	 115
  93	  95
  93	  98
  93	 101
  93	 104
  93	 105
  93	 106
  93	 107
  93	 109
  93	 112
  93	 117
  94	  96
  94	  97
  94	 102
  94	 103
  94	 105
  94	 107
  94	 109
  94	 112
  94	 119
  95	  96
  95	  97
  95	  98
  95	 100
  95	 101
  95	 105
  95	 111
  95	 112
  95	 114
  95	 115
  95	 117
  95	 118
  96	  98
  96	 103
  96	 104
  96	 107
  96	 109
  96	 110
  96	 111
  96	 114
  96	 116
  96	 118
  96	 119
  97	  98
  97	 106
  97	 109
  97	 111
  97	 119
  98	  99
  98	 101
  98	 103
  98	 104
  98	 107
  98	 109
  98	 112
  98	 114
  98	 115
  98	 118
  99	 102
  99	 105
  99	 107
  99	 109
  99	 110
  99	 115
  99	 116
 100	 101
 100	 102
 100	 104
 100	 110
 100	 111
 100	 113
 101	 102
 101	 103
 101	 104
 101	 105
 101	 107
 101	 108
 101	 110
 101	 118
 102	 109
 102	 110
 102	 114
 103	 104
 103	 107
 103	 108
 103	 111
 103	 113
 103	 115
 103	 116
 104	 116
 104	 118
 105	 109
 105	 110
 105	 119
 106	 107
 106	 109
 106	 110
 106	 111
 106	 112
 106	 113
 106	 115
 106	 116
 107	 110
 107	 111
 107	 112
 107	 117
 107	 118
 108	 112
 108	 116
 108	 119
 109	 113
 109	 114
 110	 111
 110	 115
 110	 116
 110	 117
 111	 115
 111	 116
 112	 113
 112	 115
 112	 117
 113	 114
 113	 116
 113	 119
 114	 116
 114	 117
 114	 119
 118	 119
;
